Ga4                                     
   1.00000000000000     
     4.3515518806929165    0.0106499131953374    0.0000000000000000
    -2.0970141186059448    3.8129574195815592    0.0000000000000000
     0.0000000000000000    0.0000000000000000    4.4060081425154092
   Ga
     4
Direct
  0.1560427174376784  0.8439572825631387  0.9166540580595424
  0.3439572825623216  0.6560427174368613  0.4166540580595424
  0.8439572825623216  0.1560427174368613  0.0833459419404576
  0.6560427174376784  0.3439572825631387  0.5833459419404576
 
  0.00000000E+00  0.00000000E+00  0.00000000E+00
  0.00000000E+00  0.00000000E+00  0.00000000E+00
  0.00000000E+00  0.00000000E+00  0.00000000E+00
  0.00000000E+00  0.00000000E+00  0.00000000E+00
