LAECHG = TRUE
ALGO = Fast
EDIFF = 0.0001
ENCUT = 320
IBRION = 2
ISPIN = 2
LORBIT = 11
###LSCAAWARE = .FALSE.
LREAL = Auto
LWAVE = True
NCORE = 1
NELM = 100
NSW = 0 
PREC = normal
ISMEAR = 0
SIGMA = 0.2
NSIM=1
NELM=1

