LAECHG = TRUE
ALGO = Normal
EDIFF = 0.0001
ENCUT = 520
IBRION = 2
ISPIN = 2
LORBIT = 11
###LSCAAWARE = .FALSE.
LREAL = Auto
LWAVE = True
LSORBIT = True
LNONCOLLINEAR = True
NCORE = 1
NELM = 100
NSW = 0 
PREC = normal
ISMEAR = 0
SIGMA = 0.2
NGX = 30
NGY = 30
NGZ = 30
NSIM=1
NELM=1
